
<<< setup

Version identifier: 22.1.1.0 | 2022-11-27 | 9160aff4d
Tried aggregator 1 time.
MIP Presolve eliminated 3 rows and 43 columns.
Reduced MIP has 29 rows, 197 columns, and 576 nonzeros.
Reduced MIP has 14 binaries, 183 generals, 0 SOSs, and 0 indicators.
Presolve time = 0.00 sec. (0.43 ticks)
Found incumbent of value 539.000000 after 0.02 sec. (2.07 ticks)
Probing time = 0.00 sec. (0.02 ticks)
Tried aggregator 1 time.
Detecting symmetries...
Reduced MIP has 29 rows, 197 columns, and 576 nonzeros.
Reduced MIP has 14 binaries, 183 generals, 0 SOSs, and 0 indicators.
Presolve time = 0.00 sec. (0.32 ticks)
Probing time = 0.00 sec. (0.02 ticks)
Clique table members: 1.
MIP emphasis: balance optimality and feasibility.
MIP search method: dynamic search.
Parallel mode: deterministic, using up to 16 threads.
Root relaxation solution time = 0.00 sec. (0.15 ticks)

        Nodes                                         Cuts/
   Node  Left     Objective  IInf  Best Integer    Best Bound    ItCnt     Gap

*     0+    0                          539.0000        0.0000           100.00%
*     0+    0                          398.0000        0.0000           100.00%
*     0     0      integral     0      362.0000      362.0000       23    0.00%
Elapsed time = 0.02 sec. (2.76 ticks, tree = 0.00 MB, solutions = 3)

Root node processing (before b&c):
  Real time             =    0.02 sec. (2.77 ticks)
Parallel b&c, 16 threads:
  Real time             =    0.00 sec. (0.00 ticks)
  Sync time (average)   =    0.00 sec.
  Wait time (average)   =    0.00 sec.
                          ------------
Total (root+branch&cut) =    0.02 sec. (2.77 ticks)
main returns 0

<<< main


<<< done

